&BANDS
 outdir = '../out/',
 prefix = 'm2',
 filband = 'Mg3Bi2.bands'
/
