&CONTROL
  calculation = 'bands'
  etot_conv_thr =   4.0000000000d-05
  forc_conv_thr =   1.0000000000d-04
  outdir = './out/'
  prefix = 'TiS'
  !pseudo_dir = './pseudo/'
  !tprnfor = .true.
  !tstress = .true.
  verbosity = 'high'
/
&SYSTEM
  degauss =   1.4699723600d-02
  ecutrho =   2.8000000000d+02
  ecutwfc =   3.5000000000d+01
  ibrav = 0
  nat = 4
  nosym = .false.
  nspin = 2
  ntyp = 2
  occupations = 'smearing'
  smearing = 'cold'
  !starting_magnetization(1) =   1.0000000000d-01
  !starting_magnetization(2) =   4.1666666667d-01
  nbnd = 40
/
&ELECTRONS
  conv_thr =   8.0000000000d-10
  electron_maxstep = 80
  mixing_beta =   4.0000000000d-01
/
ATOMIC_SPECIES
S      32.065 s_pbe_v1.4.uspp.F.UPF
Ti     47.867 ti_pbe_v1.4.uspp.F.UPF
ATOMIC_POSITIONS crystal
S            0.6666907186       0.3333814371       0.2500000000 
S            0.3333092814       0.6666185629       0.7500000000 
Ti           0.0000000000       0.0000000000       0.0000000000 
Ti           0.0000000000       0.0000000000       0.5000000000 
K_POINTS  crystal_b
8
   0.5000   0.0000   0.0000 50  ! M 
   0.3333   0.3333   0.0000 50  ! K 
   0.0000   0.0000   0.0000 50  ! \Gamma 
   0.5000   0.0000   0.0000 50  ! M
   0.0000   0.0000   0.0000 50  ! \Gamma
   0.0000   0.0000   0.5000 50  ! A
   0.5000   0.0000   0.5000 50  ! L 
   0.3333   0.3333   0.5000 50  ! H 
CELL_PARAMETERS angstrom
      3.2963840755       0.0000000000       0.0000000000
     -1.6481920377       2.8547523500       0.0000000000
      0.0000000000       0.0000000000       6.5815142550